
  22   10
  10   10   10   10   10   10   10   10   10   10

   0   0   0   0   0   0   0   0   0   0   0   3 2 3 5 
   9   0   0   0   0   0  10   0   0   0   0   1 4 
   3   0   0   0   0  10   0   0   0   0   0   1 4 
   7   0   0   0   0   0   0   0   0   0  10   1 6 
   7   0   0   0   0   0   0  10   0   0   0   1 6 
   8   0   0   0   0   0   0  10   0   0   0   3 9 8 7 
   9  10   0   0   0   0   0   0   0   0   0   3 14 12 11 
   7   0   0   0   0   0   0   0   0   0  10   2 15 10 
   3   0   0   0   0   0   0   0   0   0  10   2 14 13 
   3   0   0  10   0   0   0   0   0   0   0   1 14 
   5   0   0   0   0   0   0  10   0   0   0   1 13 
   3   0   0   0   0  10   0   0   0   0   0   1 13 
   9  10   0   0   0   0   0   0   0   0   0   2 18 16 
   8   0   0   0   0   0   0   0   0   0  10   2 18 16 
   9   0   0   0  10   0   0   0   0   0   0   2 18 16 
   6   0   0   0   0   0   0  10   0   0   0   1 17 
   2   0   0   0   0   0   0   0   0   0  10   2 21 19 
   8   0   0   0  10   0   0   0   0   0   0   2 21 19 
   5   0   0   0   0  10   0   0   0   0   0   1 20 
   4   0   0   0  10   0   0   0   0   0   0   1 22
   8   0   0   0   0  10   0   0   0   0   0   1 22
   0   0   0   0   0   0   0   0   0   0   0   0 
